(benchmark gametime
:status unknown
:logic QF_AUFBV
:extrafuns ((gtINDEX56  BitVec[32]))
:extrafuns ((gtFIELD__bitsForTID0__gtAGG____anonstruct_D_Work_4  Array[32:32]))
:extrafuns ((gtINDEX57  BitVec[32]))
:extrafuns ((gtAGG__rtDWork  BitVec[32]))
:extrafuns ((gtINDEX54  BitVec[32]))
:extrafuns ((gtINDEX55  BitVec[32]))
:extrafuns ((gtINDEX52  BitVec[32]))
:extrafuns ((gtINDEX53  BitVec[32]))
:extrafuns ((gtINDEX50  BitVec[32]))
:extrafuns ((gtINDEX51  BitVec[32]))
:extrafuns ((gtINDEX49  BitVec[32]))
:extrafuns ((gtINDEX48  BitVec[32]))
:extrafuns ((gtINDEX47  BitVec[32]))
:extrafuns ((gtINDEX46  BitVec[32]))
:extrafuns ((gtINDEX44  BitVec[32]))
:extrafuns ((gtINDEX45  BitVec[32]))
:extrafuns ((gtINDEX42  BitVec[32]))
:extrafuns ((gtINDEX43  BitVec[32]))
:extrafuns ((gtINDEX40  BitVec[32]))
:extrafuns ((gtINDEX41  BitVec[32]))
:extrafuns ((gtINDEX38  BitVec[32]))
:extrafuns ((gtINDEX39  BitVec[32]))
:extrafuns ((gtINDEX36  BitVec[32]))
:extrafuns ((gtINDEX37  BitVec[32]))
:extrafuns ((gtINDEX34  BitVec[32]))
:extrafuns ((gtINDEX35  BitVec[32]))
:extrafuns ((gtINDEX33  BitVec[32]))
:extrafuns ((gtINDEX31  BitVec[32]))
:extrafuns ((gtINDEX32  BitVec[32]))
:extrafuns ((gtINDEX29  BitVec[32]))
:extrafuns ((gtINDEX30  BitVec[32]))
:extrafuns ((gtINDEX27  BitVec[32]))
:extrafuns ((gtINDEX28  BitVec[32]))
:extrafuns ((gtINDEX26  BitVec[32]))
:extrafuns ((gtINDEX25  BitVec[32]))
:extrafuns ((gtINDEX24  BitVec[32]))
:extrafuns ((gtINDEX23  BitVec[32]))
:extrafuns ((gtINDEX22  BitVec[32]))
:extrafuns ((gtINDEX21  BitVec[32]))
:extrafuns ((gtINDEX19  BitVec[32]))
:extrafuns ((gtINDEX20  BitVec[32]))
:extrafuns ((gtINDEX17  BitVec[32]))
:extrafuns ((gtINDEX18  BitVec[32]))
:extrafuns ((gtINDEX15  BitVec[32]))
:extrafuns ((gtINDEX16  BitVec[32]))
:extrafuns ((gtINDEX13  BitVec[32]))
:extrafuns ((gtINDEX14  BitVec[32]))
:extrafuns ((gtINDEX11  BitVec[32]))
:extrafuns ((gtINDEX12  BitVec[32]))
:extrafuns ((gtINDEX10  BitVec[32]))
:extrafuns ((gtINDEX8  BitVec[32]))
:extrafuns ((gtINDEX9  BitVec[32]))
:extrafuns ((gtINDEX7  BitVec[32]))
:extrafuns ((gtINDEX6  BitVec[32]))
:extrafuns ((gtINDEX4  BitVec[32]))
:extrafuns ((gtINDEX5  BitVec[32]))
:extrafuns ((gtINDEX2  BitVec[32]))
:extrafuns ((gtINDEX3  BitVec[32]))
:extrafuns ((gtINDEX0  BitVec[32]))
:extrafuns ((gtINDEX1  BitVec[32]))
:extrafuns ((gtFIELD__is_Eng__gtAGG____anonstruct_bitsForTID0_5_1_  Array[32:1]))
:extrafuns ((gtFIELD__is_Eng__gtAGG____anonstruct_bitsForTID0_5_2_  Array[32:1]))
:extrafuns ((sf_previousEvent_1_  BitVec[32]))
:extrafuns ((sfEvent__2_  BitVec[32]))
:extrafuns ((gtFIELD__is_Eng__gtAGG____anonstruct_bitsForTID0_5  Array[32:1]))
:extrafuns ((gtFIELD__sent__gtAGG____anonstruct_D_Work_4_1_  Array[32:32]))
:extrafuns ((gtFIELD__sent__gtAGG____anonstruct_D_Work_4_2_  Array[32:32]))
:extrafuns ((gtFIELD__is_active_Eng__gtAGG____anonstruct_bitsForTID0_5  Array[32:1]))
:extrafuns ((gtFIELD__is_active_PURI__gtAGG____anonstruct_bitsForTID0_5  Array[32:1]))
:extrafuns ((gtFIELD__is_active_PVRP__gtAGG____anonstruct_bitsForTID0_5  Array[32:1]))
:extrafuns ((gtFIELD__is_active_PPVARP__gtAGG____anonstruct_bitsForTID0_5  Array[32:1]))
:extrafuns ((gtFIELD__is_PLRI__gtAGG____anonstruct_bitsForTID0_5_1_  Array[32:2]))
:extrafuns ((gtFIELD__is_PLRI__gtAGG____anonstruct_bitsForTID0_5_2_  Array[32:2]))
:extrafuns ((sfEvent__1_  BitVec[32]))
:extrafuns ((gtFIELD__is_active_PLRI__gtAGG____anonstruct_bitsForTID0_5  Array[32:1]))
:extrafuns ((gtFIELD__is_active_PAVI__gtAGG____anonstruct_bitsForTID0_5  Array[32:1]))
:extrafuns ((sfEvent_  BitVec[32]))
:extrafuns ((gtFIELD__sent__gtAGG____anonstruct_D_Work_4  Array[32:32]))
:extrafuns ((gtFIELD__temporalCounter_i2__gtAGG____anonstruct_D_Work_4  Array[32:32]))
:extrafuns ((gtFIELD__temporalCounter_i2__gtAGG____anonstruct_D_Work_4_1_  Array[32:32]))
:extrafuns ((gtFIELD__is_PLRI__gtAGG____anonstruct_bitsForTID0_5  Array[32:2]))
:extrafuns ((gtFIELD__n_t_n__gtAGG____anonstruct_D_Work_4  Array[32:32]))
:extrafuns ((gtFIELD__n_t_n__gtAGG____anonstruct_D_Work_4_1_  Array[32:32]))
:extrapreds ((constraint102 ))
:extrapreds ((constraint101 ))
:extrapreds ((constraint100 ))
:extrapreds ((constraint99 ))
:extrapreds ((constraint98 ))
:extrapreds ((constraint97 ))
:extrapreds ((constraint96 ))
:extrapreds ((constraint95 ))
:extrapreds ((constraint94 ))
:extrapreds ((constraint93 ))
:extrapreds ((constraint92 ))
:extrapreds ((constraint91 ))
:extrapreds ((constraint90 ))
:extrapreds ((constraint89 ))
:extrapreds ((constraint88 ))
:extrapreds ((constraint87 ))
:extrapreds ((constraint86 ))
:extrapreds ((constraint85 ))
:extrapreds ((constraint84 ))
:extrapreds ((constraint83 ))
:extrapreds ((constraint82 ))
:extrapreds ((constraint81 ))
:extrapreds ((constraint80 ))
:extrapreds ((constraint79 ))
:extrapreds ((constraint78 ))
:extrapreds ((constraint77 ))
:extrapreds ((constraint76 ))
:extrapreds ((constraint75 ))
:extrapreds ((constraint74 ))
:extrapreds ((constraint73 ))
:extrapreds ((constraint72 ))
:extrapreds ((constraint71 ))
:extrapreds ((constraint70 ))
:extrapreds ((constraint69 ))
:extrapreds ((constraint68 ))
:extrapreds ((constraint67 ))
:extrapreds ((constraint66 ))
:extrapreds ((constraint65 ))
:extrapreds ((constraint64 ))
:extrapreds ((constraint63 ))
:extrapreds ((constraint62 ))
:extrapreds ((constraint61 ))
:extrapreds ((constraint60 ))
:extrapreds ((constraint59 ))
:extrapreds ((constraint58 ))
:extrapreds ((constraint57 ))
:extrapreds ((constraint56 ))
:extrapreds ((constraint55 ))
:extrapreds ((constraint54 ))
:extrapreds ((constraint53 ))
:extrapreds ((constraint52 ))
:extrapreds ((constraint51 ))
:extrapreds ((constraint50 ))
:extrapreds ((constraint49 ))
:extrapreds ((constraint48 ))
:extrapreds ((constraint47 ))
:extrapreds ((constraint46 ))
:extrapreds ((constraint45 ))
:extrapreds ((constraint44 ))
:extrapreds ((constraint43 ))
:extrapreds ((constraint42 ))
:extrapreds ((constraint41 ))
:extrapreds ((constraint40 ))
:extrapreds ((constraint39 ))
:extrapreds ((constraint38 ))
:extrapreds ((constraint37 ))
:extrapreds ((constraint36 ))
:extrapreds ((constraint35 ))
:extrapreds ((constraint34 ))
:extrapreds ((constraint33 ))
:extrapreds ((constraint32 ))
:extrapreds ((constraint31 ))
:extrapreds ((constraint30 ))
:extrapreds ((constraint29 ))
:extrapreds ((constraint28 ))
:extrapreds ((constraint27 ))
:extrapreds ((constraint26 ))
:extrapreds ((constraint25 ))
:extrapreds ((constraint24 ))
:extrapreds ((constraint23 ))
:extrapreds ((constraint22 ))
:extrapreds ((constraint21 ))
:extrapreds ((constraint20 ))
:extrapreds ((constraint19 ))
:extrapreds ((constraint18 ))
:extrapreds ((constraint17 ))
:extrapreds ((constraint16 ))
:extrapreds ((constraint15 ))
:extrapreds ((constraint14 ))
:extrapreds ((constraint13 ))
:extrapreds ((constraint12 ))
:extrapreds ((constraint11 ))
:extrapreds ((constraint10 ))
:extrapreds ((constraint9 ))
:extrapreds ((constraint8 ))
:extrapreds ((constraint7 ))
:extrapreds ((constraint6 ))
:extrapreds ((constraint5 ))
:extrapreds ((constraint4 ))
:extrapreds ((constraint3 ))
:extrapreds ((constraint2 ))
:extrapreds ((constraint1 ))
:extrapreds ((constraint0 ))
:formula
(flet ($x535 (and constraint0 constraint1 constraint2 constraint3 constraint4 constraint5 constraint6 constraint7 constraint8 constraint9 constraint10 constraint11 constraint12 constraint13 constraint14 constraint15 constraint16 constraint17 constraint18 constraint19 constraint20 constraint21 constraint22 constraint23 constraint24 constraint25 constraint26 constraint27 constraint28 constraint29 constraint30 constraint31 constraint32 constraint33 constraint34 constraint35 constraint36 constraint37 constraint38 constraint39 constraint40 constraint41 constraint42 constraint43 constraint44 constraint45 constraint46 constraint47 constraint48 constraint49 constraint50 constraint51 constraint52 constraint53 constraint54 constraint55 constraint56 constraint57 constraint58 constraint59 constraint60 constraint61 constraint62 constraint63 constraint64 constraint65 constraint66 constraint67 constraint68 constraint69 constraint70 constraint71 constraint72 constraint73 constraint74 constraint75 constraint76 constraint77 constraint78 constraint79 constraint80 constraint81 constraint82 constraint83 constraint84 constraint85 constraint86 constraint87 constraint88 constraint89 constraint90 constraint91 constraint92 constraint93 constraint94 constraint95 constraint96 constraint97 constraint98 constraint99 constraint100 constraint101 constraint102))
(flet ($x327 (= gtINDEX57 (select gtFIELD__bitsForTID0__gtAGG____anonstruct_D_Work_4 gtINDEX56)))
(flet ($x323 (= gtINDEX55 (select gtFIELD__bitsForTID0__gtAGG____anonstruct_D_Work_4 gtINDEX54)))
(flet ($x319 (= gtINDEX53 (select gtFIELD__bitsForTID0__gtAGG____anonstruct_D_Work_4 gtINDEX52)))
(flet ($x315 (= gtINDEX51 (select gtFIELD__bitsForTID0__gtAGG____anonstruct_D_Work_4 gtINDEX50)))
(flet ($x307 (= gtINDEX45 (select gtFIELD__bitsForTID0__gtAGG____anonstruct_D_Work_4 gtINDEX44)))
(flet ($x303 (= gtINDEX43 (select gtFIELD__bitsForTID0__gtAGG____anonstruct_D_Work_4 gtINDEX42)))
(flet ($x299 (= gtINDEX41 (select gtFIELD__bitsForTID0__gtAGG____anonstruct_D_Work_4 gtINDEX40)))
(flet ($x295 (= gtINDEX39 (select gtFIELD__bitsForTID0__gtAGG____anonstruct_D_Work_4 gtINDEX38)))
(flet ($x291 (= gtINDEX37 (select gtFIELD__bitsForTID0__gtAGG____anonstruct_D_Work_4 gtINDEX36)))
(flet ($x287 (= gtINDEX35 (select gtFIELD__bitsForTID0__gtAGG____anonstruct_D_Work_4 gtINDEX34)))
(flet ($x282 (= gtINDEX32 (select gtFIELD__bitsForTID0__gtAGG____anonstruct_D_Work_4 gtINDEX31)))
(flet ($x278 (= gtINDEX30 (select gtFIELD__bitsForTID0__gtAGG____anonstruct_D_Work_4 gtINDEX29)))
(flet ($x274 (= gtINDEX28 (select gtFIELD__bitsForTID0__gtAGG____anonstruct_D_Work_4 gtINDEX27)))
(flet ($x264 (= gtINDEX20 (select gtFIELD__bitsForTID0__gtAGG____anonstruct_D_Work_4 gtINDEX19)))
(flet ($x260 (= gtINDEX18 (select gtFIELD__bitsForTID0__gtAGG____anonstruct_D_Work_4 gtINDEX17)))
(flet ($x256 (= gtINDEX16 (select gtFIELD__bitsForTID0__gtAGG____anonstruct_D_Work_4 gtINDEX15)))
(flet ($x252 (= gtINDEX14 (select gtFIELD__bitsForTID0__gtAGG____anonstruct_D_Work_4 gtINDEX13)))
(flet ($x248 (= gtINDEX12 (select gtFIELD__bitsForTID0__gtAGG____anonstruct_D_Work_4 gtINDEX11)))
(flet ($x243 (= gtINDEX9 (select gtFIELD__bitsForTID0__gtAGG____anonstruct_D_Work_4 gtINDEX8)))
(flet ($x237 (= gtINDEX5 (select gtFIELD__bitsForTID0__gtAGG____anonstruct_D_Work_4 gtINDEX4)))
(flet ($x233 (= gtINDEX3 (select gtFIELD__bitsForTID0__gtAGG____anonstruct_D_Work_4 gtINDEX2)))
(flet ($x229 (= gtINDEX1 (select gtFIELD__bitsForTID0__gtAGG____anonstruct_D_Work_4 gtINDEX0)))
(let (?x213 (extract[0:0] bv1[32]))
(let (?x223 (store gtFIELD__is_Eng__gtAGG____anonstruct_bitsForTID0_5_1_ gtINDEX57 ?x213))
(flet ($x417 (iff constraint44 (= gtFIELD__is_Eng__gtAGG____anonstruct_bitsForTID0_5_2_ ?x223)))
(let (?x219 (select gtFIELD__is_Eng__gtAGG____anonstruct_bitsForTID0_5_1_ gtINDEX55))
(let (?x214 (store gtFIELD__is_Eng__gtAGG____anonstruct_bitsForTID0_5 gtINDEX53 ?x213))
(flet ($x411 (iff constraint41 (= gtFIELD__is_Eng__gtAGG____anonstruct_bitsForTID0_5_1_ ?x214)))
(let (?x210 (zero_extend[31] (select gtFIELD__is_Eng__gtAGG____anonstruct_bitsForTID0_5 gtINDEX51)))
(let (?x206 (store gtFIELD__sent__gtAGG____anonstruct_D_Work_4_1_ gtINDEX49 bv0[32]))
(flet ($x407 (iff constraint39 (= gtFIELD__sent__gtAGG____anonstruct_D_Work_4_2_ ?x206)))
(let (?x118 (bvmul bv4294967295[32] bv1[32]))
(flet ($x204 (= (select gtFIELD__sent__gtAGG____anonstruct_D_Work_4_1_ gtINDEX48) ?x118))
(flet ($x200 (= (select gtFIELD__sent__gtAGG____anonstruct_D_Work_4_1_ gtINDEX47) bv9[32]))
(flet ($x196 (= (select gtFIELD__sent__gtAGG____anonstruct_D_Work_4_1_ gtINDEX46) bv4[32]))
(let (?x192 (zero_extend[31] (select gtFIELD__is_Eng__gtAGG____anonstruct_bitsForTID0_5 gtINDEX45)))
(let (?x186 (select gtFIELD__is_active_Eng__gtAGG____anonstruct_bitsForTID0_5 gtINDEX43))
(let (?x180 (select gtFIELD__is_active_PURI__gtAGG____anonstruct_bitsForTID0_5 gtINDEX41))
(let (?x174 (select gtFIELD__is_active_PVRP__gtAGG____anonstruct_bitsForTID0_5 gtINDEX39))
(let (?x168 (select gtFIELD__is_active_PPVARP__gtAGG____anonstruct_bitsForTID0_5 gtINDEX37))
(let (?x165 (store gtFIELD__is_PLRI__gtAGG____anonstruct_bitsForTID0_5_1_ gtINDEX35 (extract[1:0] bv2[32])))
(flet ($x389 (iff constraint30 (= gtFIELD__is_PLRI__gtAGG____anonstruct_bitsForTID0_5_2_ ?x165)))
(flet ($x156 (= (select gtFIELD__sent__gtAGG____anonstruct_D_Work_4_1_ gtINDEX33) bv0[32]))
(let (?x151 (select gtFIELD__is_PLRI__gtAGG____anonstruct_bitsForTID0_5_1_ gtINDEX32))
(let (?x146 (select gtFIELD__is_active_PLRI__gtAGG____anonstruct_bitsForTID0_5 gtINDEX30))
(let (?x140 (select gtFIELD__is_active_PAVI__gtAGG____anonstruct_bitsForTID0_5 gtINDEX28))
(flet ($x131 (= gtFIELD__sent__gtAGG____anonstruct_D_Work_4_1_ (store gtFIELD__sent__gtAGG____anonstruct_D_Work_4 gtINDEX26 ?x118)))
(flet ($x128 (= (select gtFIELD__sent__gtAGG____anonstruct_D_Work_4 gtINDEX25) bv2[32]))
(flet ($x123 (= (select gtFIELD__sent__gtAGG____anonstruct_D_Work_4 gtINDEX24) bv1[32]))
(flet ($x119 (= (select gtFIELD__sent__gtAGG____anonstruct_D_Work_4 gtINDEX23) ?x118))
(flet ($x113 (= (select gtFIELD__sent__gtAGG____anonstruct_D_Work_4 gtINDEX22) bv9[32]))
(flet ($x108 (= (select gtFIELD__sent__gtAGG____anonstruct_D_Work_4 gtINDEX21) bv4[32]))
(let (?x104 (zero_extend[31] (select gtFIELD__is_Eng__gtAGG____anonstruct_bitsForTID0_5 gtINDEX20)))
(let (?x98 (select gtFIELD__is_active_Eng__gtAGG____anonstruct_bitsForTID0_5 gtINDEX18))
(let (?x92 (select gtFIELD__is_active_PURI__gtAGG____anonstruct_bitsForTID0_5 gtINDEX16))
(let (?x86 (select gtFIELD__is_active_PVRP__gtAGG____anonstruct_bitsForTID0_5 gtINDEX14))
(let (?x80 (select gtFIELD__is_active_PPVARP__gtAGG____anonstruct_bitsForTID0_5 gtINDEX12))
(let (?x77 (store gtFIELD__temporalCounter_i2__gtAGG____anonstruct_D_Work_4 gtINDEX10 bv0[32]))
(flet ($x345 (iff constraint8 (= gtFIELD__temporalCounter_i2__gtAGG____anonstruct_D_Work_4_1_ ?x77)))
(let (?x74 (store gtFIELD__is_PLRI__gtAGG____anonstruct_bitsForTID0_5 gtINDEX9 (extract[1:0] bv1[32])))
(flet ($x343 (iff constraint7 (= gtFIELD__is_PLRI__gtAGG____anonstruct_bitsForTID0_5_1_ ?x74)))
(flet ($x71 (= gtFIELD__n_t_n__gtAGG____anonstruct_D_Work_4_1_ (store gtFIELD__n_t_n__gtAGG____anonstruct_D_Work_4 gtINDEX7 bv0[32])))
(flet ($x65 (= (select gtFIELD__sent__gtAGG____anonstruct_D_Work_4 gtINDEX6) bv0[32]))
(let (?x60 (zero_extend[30] (select gtFIELD__is_PLRI__gtAGG____anonstruct_bitsForTID0_5 gtINDEX5)))
(let (?x54 (select gtFIELD__is_active_PLRI__gtAGG____anonstruct_bitsForTID0_5 gtINDEX3))
(let (?x47 (select gtFIELD__is_active_PAVI__gtAGG____anonstruct_bitsForTID0_5 gtINDEX1))
(flet ($x534 (and (iff constraint0 (not (= sfEvent_ bv8[32]))) (iff constraint1 (not (not (= (zero_extend[31] ?x47) bv0[32])))) (iff constraint2 (not (= (zero_extend[31] ?x54) bv0[32]))) (iff constraint3 (= ?x60 bv1[32])) (iff constraint4 (not $x65)) (iff constraint5 (= sfEvent_ bv4[32])) (iff constraint6 $x71) $x343 $x345 (iff constraint9 (not (not (= (zero_extend[31] ?x80) bv0[32])))) (iff constraint10 (not (not (= (zero_extend[31] ?x86) bv0[32])))) (iff constraint11 (not (not (= (zero_extend[31] ?x92) bv0[32])))) (iff constraint12 (not (= (zero_extend[31] ?x98) bv0[32]))) (iff constraint13 (= ?x104 bv1[32])) (iff constraint14 (not $x108)) (iff constraint15 (not $x113)) (iff constraint16 (not $x119)) (iff constraint17 (not $x123)) (iff constraint18 $x128) (iff constraint19 $x131) (iff constraint20 (= sf_previousEvent_1_ sfEvent_)) (iff constraint21 (= sfEvent__1_ bv3[32])) (iff constraint22 (not (= sfEvent__1_ bv8[32]))) (iff constraint23 (not (not (= (zero_extend[31] ?x140) bv0[32])))) (iff constraint24 (not (= (zero_extend[31] ?x146) bv0[32]))) (iff constraint25 (= (zero_extend[30] ?x151) bv1[32])) (iff constraint26 (not $x156)) (iff constraint27 (not (= sfEvent__1_ bv4[32]))) (iff constraint28 (not (= sfEvent__1_ bv5[32]))) (iff constraint29 (= sfEvent__1_ bv3[32])) $x389 (iff constraint31 (not (not (= (zero_extend[31] ?x168) bv0[32])))) (iff constraint32 (not (not (= (zero_extend[31] ?x174) bv0[32])))) (iff constraint33 (not (not (= (zero_extend[31] ?x180) bv0[32])))) (iff constraint34 (not (= (zero_extend[31] ?x186) bv0[32]))) (iff constraint35 (= ?x192 bv1[32])) (iff constraint36 (not $x196)) (iff constraint37 (not $x200)) (iff constraint38 $x204) $x407 (iff constraint40 (= ?x210 bv1[32])) $x411 (iff constraint42 (= sfEvent__2_ sf_previousEvent_1_)) (iff constraint43 (= (zero_extend[31] ?x219) bv1[32])) $x417 (iff constraint45 (= gtINDEX0 gtAGG__rtDWork)) (iff constraint46 $x229) (iff constraint47 (= gtINDEX2 gtAGG__rtDWork)) (iff constraint48 $x233) (iff constraint49 (= gtINDEX4 gtAGG__rtDWork)) (iff constraint50 $x237) (iff constraint51 (= gtINDEX6 gtAGG__rtDWork)) (iff constraint52 (= gtINDEX7 gtAGG__rtDWork)) (iff constraint53 (= gtINDEX8 gtAGG__rtDWork)) (iff constraint54 $x243) (iff constraint55 (= gtINDEX10 gtAGG__rtDWork)) (iff constraint56 (= gtINDEX11 gtAGG__rtDWork)) (iff constraint57 $x248) (iff constraint58 (= gtINDEX13 gtAGG__rtDWork)) (iff constraint59 $x252) (iff constraint60 (= gtINDEX15 gtAGG__rtDWork)) (iff constraint61 $x256) (iff constraint62 (= gtINDEX17 gtAGG__rtDWork)) (iff constraint63 $x260) (iff constraint64 (= gtINDEX19 gtAGG__rtDWork)) (iff constraint65 $x264) (iff constraint66 (= gtINDEX21 gtAGG__rtDWork)) (iff constraint67 (= gtINDEX22 gtAGG__rtDWork)) (iff constraint68 (= gtINDEX23 gtAGG__rtDWork)) (iff constraint69 (= gtINDEX24 gtAGG__rtDWork)) (iff constraint70 (= gtINDEX25 gtAGG__rtDWork)) (iff constraint71 (= gtINDEX26 gtAGG__rtDWork)) (iff constraint72 (= gtINDEX27 gtAGG__rtDWork)) (iff constraint73 $x274) (iff constraint74 (= gtINDEX29 gtAGG__rtDWork)) (iff constraint75 $x278) (iff constraint76 (= gtINDEX31 gtAGG__rtDWork)) (iff constraint77 $x282) (iff constraint78 (= gtINDEX33 gtAGG__rtDWork)) (iff constraint79 (= gtINDEX34 gtAGG__rtDWork)) (iff constraint80 $x287) (iff constraint81 (= gtINDEX36 gtAGG__rtDWork)) (iff constraint82 $x291) (iff constraint83 (= gtINDEX38 gtAGG__rtDWork)) (iff constraint84 $x295) (iff constraint85 (= gtINDEX40 gtAGG__rtDWork)) (iff constraint86 $x299) (iff constraint87 (= gtINDEX42 gtAGG__rtDWork)) (iff constraint88 $x303) (iff constraint89 (= gtINDEX44 gtAGG__rtDWork)) (iff constraint90 $x307) (iff constraint91 (= gtINDEX46 gtAGG__rtDWork)) (iff constraint92 (= gtINDEX47 gtAGG__rtDWork)) (iff constraint93 (= gtINDEX48 gtAGG__rtDWork)) (iff constraint94 (= gtINDEX49 gtAGG__rtDWork)) (iff constraint95 (= gtINDEX50 gtAGG__rtDWork)) (iff constraint96 $x315) (iff constraint97 (= gtINDEX52 gtAGG__rtDWork)) (iff constraint98 $x319) (iff constraint99 (= gtINDEX54 gtAGG__rtDWork)) (iff constraint100 $x323) (iff constraint101 (= gtINDEX56 gtAGG__rtDWork)) (iff constraint102 $x327)))
(and $x534 $x535)))))))))))))))))))))))))))))))))))))))))))))))))))))))))))))))))))))
)
